60
1 0 3
2 0 7
2 1 2
3 0 4
3 1 7
3 2 5
4 0 3
4 1 5
4 2 6
4 3 2
5 0 5
5 1 7
5 2 2
5 3 4
5 4 6
6 0 7
6 1 6
6 2 5
6 3 2
6 4 7
6 5 6
7 0 1
7 1 4
7 2 1
7 3 4
7 4 2
7 5 4
7 6 7
8 0 1
8 1 7
8 2 3
8 3 1
8 4 7
8 5 7
8 6 1
8 7 6
9 0 1
9 1 7
9 2 7
9 3 6
9 4 2
9 5 5
9 6 6
9 7 2
9 8 5
10 0 6
10 1 4
10 2 6
10 3 5
10 4 7
10 5 4
10 6 5
10 7 7
10 8 7
10 9 2
11 0 7
11 1 1
11 2 2
11 3 5
11 4 6
11 5 6
11 6 2
11 7 6
11 8 1
11 9 7
11 10 6
12 0 4
12 1 3
12 2 3
12 3 7
12 4 4
12 5 4
12 6 3
12 7 3
12 8 6
12 9 3
12 10 3
12 11 2
13 0 1
13 1 2
13 2 1
13 3 7
13 4 3
13 5 2
13 6 1
13 7 7
13 8 3
13 9 1
13 10 1
13 11 7
13 12 7
14 0 7
14 1 3
14 2 1
14 3 4
14 4 4
14 5 7
14 6 5
14 7 4
14 8 7
14 9 7
14 10 6
14 11 7
14 12 6
14 13 2
15 0 2
15 1 5
15 2 1
15 3 1
15 4 2
15 5 3
15 6 5
15 7 4
15 8 1
15 9 2
15 10 4
15 11 6
15 12 2
15 13 6
15 14 4
16 0 6
16 1 7
16 2 6
16 3 4
16 4 6
16 5 3
16 6 2
16 7 3
16 8 2
16 9 6
16 10 3
16 11 6
16 12 3
16 13 1
16 14 5
16 15 2
17 0 5
17 1 7
17 2 3
17 3 5
17 4 6
17 5 5
17 6 4
17 7 1
17 8 5
17 9 4
17 10 7
17 11 3
17 12 5
17 13 3
17 14 5
17 15 3
17 16 2
18 0 2
18 1 4
18 2 7
18 3 7
18 4 6
18 5 1
18 6 3
18 7 5
18 8 4
18 9 4
18 10 2
18 11 5
18 12 3
18 13 2
18 14 3
18 15 5
18 16 7
18 17 6
19 0 6
19 1 6
19 2 7
19 3 4
19 4 7
19 5 2
19 6 1
19 7 7
19 8 6
19 9 6
19 10 2
19 11 2
19 12 1
19 13 7
19 14 7
19 15 7
19 16 6
19 17 3
19 18 7
20 0 4
20 1 4
20 2 3
20 3 7
20 4 4
20 5 1
20 6 4
20 7 4
20 8 1
20 9 1
20 10 6
20 11 2
20 12 1
20 13 1
20 14 7
20 15 3
20 16 5
20 17 4
20 18 1
20 19 5
21 0 2
21 1 4
21 2 4
21 3 2
21 4 2
21 5 4
21 6 1
21 7 1
21 8 1
21 9 6
21 10 4
21 11 2
21 12 5
21 13 6
21 14 4
21 15 2
21 16 1
21 17 3
21 18 1
21 19 5
21 20 2
22 0 2
22 1 3
22 2 3
22 3 2
22 4 5
22 5 5
22 6 3
22 7 5
22 8 6
22 9 7
22 10 1
22 11 7
22 12 6
22 13 7
22 14 1
22 15 7
22 16 2
22 17 7
22 18 7
22 19 5
22 20 7
22 21 4
23 0 3
23 1 2
23 2 3
23 3 6
23 4 4
23 5 1
23 6 3
23 7 7
23 8 5
23 9 7
23 10 1
23 11 1
23 12 5
23 13 7
23 14 7
23 15 4
23 16 7
23 17 7
23 18 7
23 19 1
23 20 5
23 21 2
23 22 5
24 0 4
24 1 7
24 2 5
24 3 5
24 4 6
24 5 5
24 6 1
24 7 3
24 8 7
24 9 6
24 10 2
24 11 7
24 12 1
24 13 4
24 14 4
24 15 7
24 16 1
24 17 7
24 18 7
24 19 5
24 20 7
24 21 2
24 22 1
24 23 3
25 0 3
25 1 1
25 2 6
25 3 7
25 4 3
25 5 6
25 6 2
25 7 1
25 8 2
25 9 3
25 10 3
25 11 3
25 12 7
25 13 3
25 14 6
25 15 1
25 16 4
25 17 7
25 18 3
25 19 7
25 20 2
25 21 2
25 22 4
25 23 7
25 24 4
26 0 1
26 1 1
26 2 4
26 3 5
26 4 2
26 5 5
26 6 7
26 7 2
26 8 3
26 9 7
26 10 6
26 11 7
26 12 5
26 13 5
26 14 2
26 15 5
26 16 1
26 17 7
26 18 3
26 19 5
26 20 4
26 21 5
26 22 6
26 23 5
26 24 7
26 25 6
27 0 2
27 1 5
27 2 2
27 3 1
27 4 3
27 5 5
27 6 3
27 7 4
27 8 1
27 9 3
27 10 7
27 11 2
27 12 4
27 13 2
27 14 5
27 15 5
27 16 3
27 17 6
27 18 1
27 19 5
27 20 3
27 21 4
27 22 6
27 23 7
27 24 7
27 25 7
27 26 2
28 0 2
28 1 5
28 2 1
28 3 2
28 4 6
28 5 6
28 6 5
28 7 3
28 8 6
28 9 7
28 10 4
28 11 4
28 12 7
28 13 1
28 14 3
28 15 2
28 16 5
28 17 3
28 18 2
28 19 2
28 20 1
28 21 3
28 22 3
28 23 6
28 24 7
28 25 4
28 26 1
28 27 6
29 0 1
29 1 6
29 2 2
29 3 5
29 4 3
29 5 5
29 6 5
29 7 4
29 8 5
29 9 5
29 10 1
29 11 6
29 12 6
29 13 2
29 14 7
29 15 3
29 16 1
29 17 6
29 18 7
29 19 1
29 20 2
29 21 6
29 22 3
29 23 3
29 24 6
29 25 3
29 26 5
29 27 4
29 28 3
30 0 6
30 1 3
30 2 7
30 3 2
30 4 1
30 5 3
30 6 1
30 7 4
30 8 4
30 9 6
30 10 2
30 11 6
30 12 7
30 13 3
30 14 2
30 15 4
30 16 2
30 17 2
30 18 5
30 19 1
30 20 4
30 21 3
30 22 3
30 23 5
30 24 5
30 25 6
30 26 1
30 27 2
30 28 7
30 29 1
31 0 3
31 1 2
31 2 2
31 3 5
31 4 7
31 5 4
31 6 2
31 7 2
31 8 1
31 9 1
31 10 6
31 11 2
31 12 7
31 13 7
31 14 2
31 15 2
31 16 4
31 17 6
31 18 6
31 19 1
31 20 1
31 21 4
31 22 6
31 23 4
31 24 4
31 25 1
31 26 4
31 27 4
31 28 1
31 29 6
31 30 4
32 0 5
32 1 3
32 2 5
32 3 1
32 4 3
32 5 1
32 6 5
32 7 5
32 8 2
32 9 2
32 10 2
32 11 5
32 12 7
32 13 3
32 14 3
32 15 6
32 16 1
32 17 6
32 18 5
32 19 5
32 20 7
32 21 1
32 22 5
32 23 5
32 24 4
32 25 4
32 26 2
32 27 4
32 28 4
32 29 1
32 30 5
32 31 1
33 0 6
33 1 3
33 2 2
33 3 1
33 4 4
33 5 3
33 6 4
33 7 6
33 8 5
33 9 7
33 10 3
33 11 2
33 12 3
33 13 2
33 14 2
33 15 1
33 16 6
33 17 1
33 18 7
33 19 1
33 20 2
33 21 1
33 22 4
33 23 1
33 24 1
33 25 5
33 26 4
33 27 5
33 28 2
33 29 3
33 30 2
33 31 6
33 32 3
34 0 1
34 1 7
34 2 5
34 3 6
34 4 1
34 5 5
34 6 4
34 7 3
34 8 4
34 9 3
34 10 3
34 11 3
34 12 6
34 13 2
34 14 7
34 15 4
34 16 7
34 17 3
34 18 7
34 19 2
34 20 5
34 21 3
34 22 1
34 23 3
34 24 2
34 25 3
34 26 3
34 27 2
34 28 6
34 29 3
34 30 7
34 31 1
34 32 3
34 33 4
35 0 2
35 1 6
35 2 6
35 3 5
35 4 5
35 5 3
35 6 4
35 7 2
35 8 3
35 9 4
35 10 1
35 11 1
35 12 1
35 13 1
35 14 5
35 15 3
35 16 2
35 17 1
35 18 6
35 19 3
35 20 5
35 21 4
35 22 3
35 23 4
35 24 6
35 25 6
35 26 4
35 27 1
35 28 5
35 29 3
35 30 5
35 31 2
35 32 6
35 33 6
35 34 1
36 0 7
36 1 2
36 2 4
36 3 2
36 4 4
36 5 3
36 6 2
36 7 4
36 8 6
36 9 6
36 10 1
36 11 6
36 12 5
36 13 7
36 14 5
36 15 3
36 16 1
36 17 7
36 18 5
36 19 2
36 20 4
36 21 6
36 22 6
36 23 7
36 24 2
36 25 6
36 26 7
36 27 2
36 28 3
36 29 2
36 30 4
36 31 3
36 32 7
36 33 1
36 34 5
36 35 3
37 0 2
37 1 5
37 2 3
37 3 6
37 4 3
37 5 6
37 6 4
37 7 2
37 8 7
37 9 3
37 10 7
37 11 5
37 12 3
37 13 1
37 14 6
37 15 4
37 16 7
37 17 6
37 18 2
37 19 3
37 20 5
37 21 6
37 22 3
37 23 5
37 24 1
37 25 1
37 26 5
37 27 5
37 28 5
37 29 6
37 30 5
37 31 5
37 32 1
37 33 4
37 34 3
37 35 4
37 36 5
38 0 2
38 1 7
38 2 7
38 3 5
38 4 1
38 5 6
38 6 1
38 7 1
38 8 1
38 9 2
38 10 6
38 11 1
38 12 4
38 13 5
38 14 5
38 15 6
38 16 4
38 17 7
38 18 1
38 19 4
38 20 6
38 21 5
38 22 4
38 23 2
38 24 2
38 25 6
38 26 6
38 27 7
38 28 2
38 29 3
38 30 1
38 31 6
38 32 2
38 33 6
38 34 4
38 35 4
38 36 3
38 37 4
39 0 2
39 1 3
39 2 7
39 3 2
39 4 5
39 5 7
39 6 1
39 7 3
39 8 6
39 9 1
39 10 7
39 11 2
39 12 2
39 13 1
39 14 1
39 15 1
39 16 2
39 17 5
39 18 6
39 19 6
39 20 4
39 21 3
39 22 7
39 23 6
39 24 7
39 25 6
39 26 7
39 27 1
39 28 1
39 29 1
39 30 1
39 31 5
39 32 5
39 33 5
39 34 1
39 35 4
39 36 3
39 37 5
39 38 1
40 0 2
40 1 5
40 2 7
40 3 7
40 4 3
40 5 3
40 6 5
40 7 7
40 8 6
40 9 2
40 10 4
40 11 7
40 12 4
40 13 6
40 14 3
40 15 1
40 16 2
40 17 6
40 18 4
40 19 1
40 20 7
40 21 7
40 22 6
40 23 1
40 24 4
40 25 3
40 26 2
40 27 1
40 28 6
40 29 5
40 30 6
40 31 6
40 32 4
40 33 5
40 34 3
40 35 6
40 36 4
40 37 7
40 38 2
40 39 5
41 0 2
41 1 2
41 2 3
41 3 7
41 4 2
41 5 1
41 6 3
41 7 7
41 8 3
41 9 4
41 10 1
41 11 5
41 12 5
41 13 1
41 14 2
41 15 1
41 16 7
41 17 3
41 18 5
41 19 2
41 20 6
41 21 6
41 22 6
41 23 2
41 24 2
41 25 4
41 26 7
41 27 5
41 28 5
41 29 2
41 30 1
41 31 3
41 32 6
41 33 4
41 34 5
41 35 3
41 36 3
41 37 5
41 38 1
41 39 5
41 40 3
42 0 4
42 1 4
42 2 6
42 3 4
42 4 5
42 5 6
42 6 1
42 7 6
42 8 4
42 9 1
42 10 4
42 11 5
42 12 7
42 13 5
42 14 3
42 15 6
42 16 4
42 17 1
42 18 5
42 19 1
42 20 6
42 21 1
42 22 6
42 23 2
42 24 5
42 25 4
42 26 7
42 27 2
42 28 2
42 29 1
42 30 4
42 31 2
42 32 1
42 33 5
42 34 3
42 35 5
42 36 3
42 37 4
42 38 4
42 39 6
42 40 1
42 41 7
43 0 6
43 1 5
43 2 4
43 3 7
43 4 5
43 5 4
43 6 4
43 7 5
43 8 3
43 9 2
43 10 5
43 11 6
43 12 5
43 13 6
43 14 5
43 15 5
43 16 5
43 17 3
43 18 6
43 19 5
43 20 6
43 21 4
43 22 1
43 23 3
43 24 1
43 25 6
43 26 7
43 27 7
43 28 1
43 29 2
43 30 5
43 31 4
43 32 5
43 33 5
43 34 5
43 35 6
43 36 1
43 37 4
43 38 5
43 39 2
43 40 1
43 41 7
43 42 2
44 0 4
44 1 5
44 2 7
44 3 5
44 4 2
44 5 3
44 6 4
44 7 7
44 8 2
44 9 3
44 10 6
44 11 3
44 12 5
44 13 1
44 14 2
44 15 1
44 16 2
44 17 4
44 18 2
44 19 2
44 20 7
44 21 3
44 22 3
44 23 7
44 24 7
44 25 7
44 26 2
44 27 4
44 28 6
44 29 1
44 30 5
44 31 7
44 32 5
44 33 7
44 34 2
44 35 3
44 36 3
44 37 5
44 38 3
44 39 6
44 40 1
44 41 4
44 42 6
44 43 1
45 0 1
45 1 2
45 2 1
45 3 7
45 4 1
45 5 5
45 6 7
45 7 4
45 8 2
45 9 7
45 10 7
45 11 1
45 12 5
45 13 3
45 14 7
45 15 4
45 16 3
45 17 7
45 18 6
45 19 4
45 20 3
45 21 4
45 22 4
45 23 5
45 24 4
45 25 5
45 26 6
45 27 6
45 28 3
45 29 2
45 30 5
45 31 3
45 32 4
45 33 7
45 34 7
45 35 1
45 36 6
45 37 2
45 38 6
45 39 6
45 40 6
45 41 3
45 42 1
45 43 3
45 44 6
46 0 7
46 1 7
46 2 1
46 3 1
46 4 3
46 5 4
46 6 2
46 7 6
46 8 5
46 9 2
46 10 7
46 11 7
46 12 2
46 13 7
46 14 2
46 15 6
46 16 1
46 17 2
46 18 7
46 19 5
46 20 4
46 21 2
46 22 5
46 23 7
46 24 2
46 25 1
46 26 7
46 27 2
46 28 1
46 29 1
46 30 3
46 31 5
46 32 4
46 33 5
46 34 2
46 35 6
46 36 3
46 37 6
46 38 1
46 39 6
46 40 6
46 41 3
46 42 4
46 43 6
46 44 6
46 45 2
47 0 2
47 1 6
47 2 1
47 3 6
47 4 2
47 5 6
47 6 2
47 7 1
47 8 2
47 9 1
47 10 4
47 11 2
47 12 2
47 13 5
47 14 2
47 15 7
47 16 7
47 17 1
47 18 4
47 19 2
47 20 4
47 21 2
47 22 5
47 23 3
47 24 5
47 25 4
47 26 4
47 27 6
47 28 3
47 29 1
47 30 3
47 31 1
47 32 6
47 33 4
47 34 1
47 35 7
47 36 2
47 37 3
47 38 4
47 39 1
47 40 7
47 41 6
47 42 1
47 43 7
47 44 6
47 45 6
47 46 1
48 0 6
48 1 3
48 2 3
48 3 1
48 4 6
48 5 4
48 6 2
48 7 7
48 8 7
48 9 6
48 10 2
48 11 1
48 12 3
48 13 4
48 14 6
48 15 5
48 16 4
48 17 2
48 18 6
48 19 2
48 20 7
48 21 6
48 22 1
48 23 2
48 24 3
48 25 1
48 26 4
48 27 4
48 28 5
48 29 6
48 30 2
48 31 5
48 32 7
48 33 5
48 34 6
48 35 2
48 36 6
48 37 5
48 38 3
48 39 4
48 40 5
48 41 3
48 42 4
48 43 2
48 44 7
48 45 4
48 46 6
48 47 7
49 0 5
49 1 4
49 2 1
49 3 2
49 4 4
49 5 2
49 6 4
49 7 3
49 8 2
49 9 6
49 10 2
49 11 3
49 12 6
49 13 2
49 14 3
49 15 6
49 16 6
49 17 1
49 18 3
49 19 2
49 20 2
49 21 5
49 22 6
49 23 5
49 24 7
49 25 4
49 26 1
49 27 1
49 28 5
49 29 5
49 30 7
49 31 3
49 32 3
49 33 3
49 34 3
49 35 3
49 36 2
49 37 4
49 38 1
49 39 1
49 40 4
49 41 4
49 42 1
49 43 6
49 44 7
49 45 7
49 46 7
49 47 3
49 48 2
50 0 3
50 1 1
50 2 2
50 3 7
50 4 3
50 5 2
50 6 7
50 7 4
50 8 5
50 9 4
50 10 6
50 11 2
50 12 2
50 13 3
50 14 7
50 15 2
50 16 3
50 17 7
50 18 6
50 19 2
50 20 3
50 21 5
50 22 7
50 23 7
50 24 7
50 25 6
50 26 2
50 27 1
50 28 2
50 29 5
50 30 7
50 31 5
50 32 1
50 33 4
50 34 6
50 35 3
50 36 1
50 37 4
50 38 5
50 39 2
50 40 1
50 41 1
50 42 5
50 43 6
50 44 1
50 45 1
50 46 6
50 47 6
50 48 6
50 49 4
51 0 3
51 1 7
51 2 7
51 3 7
51 4 5
51 5 5
51 6 5
51 7 1
51 8 3
51 9 3
51 10 7
51 11 1
51 12 6
51 13 3
51 14 7
51 15 1
51 16 2
51 17 7
51 18 6
51 19 5
51 20 1
51 21 2
51 22 4
51 23 4
51 24 4
51 25 3
51 26 5
51 27 5
51 28 6
51 29 5
51 30 3
51 31 5
51 32 1
51 33 5
51 34 7
51 35 3
51 36 5
51 37 2
51 38 7
51 39 7
51 40 7
51 41 4
51 42 1
51 43 7
51 44 7
51 45 5
51 46 7
51 47 2
51 48 1
51 49 6
51 50 2
52 0 6
52 1 4
52 2 7
52 3 7
52 4 1
52 5 7
52 6 5
52 7 4
52 8 4
52 9 7
52 10 6
52 11 1
52 12 5
52 13 3
52 14 4
52 15 1
52 16 4
52 17 2
52 18 2
52 19 1
52 20 1
52 21 4
52 22 2
52 23 5
52 24 7
52 25 5
52 26 4
52 27 7
52 28 5
52 29 1
52 30 3
52 31 7
52 32 2
52 33 6
52 34 7
52 35 2
52 36 3
52 37 1
52 38 5
52 39 5
52 40 4
52 41 5
52 42 2
52 43 1
52 44 2
52 45 7
52 46 1
52 47 1
52 48 3
52 49 4
52 50 3
52 51 6
53 0 1
53 1 2
53 2 6
53 3 5
53 4 4
53 5 4
53 6 4
53 7 1
53 8 5
53 9 5
53 10 3
53 11 6
53 12 2
53 13 2
53 14 7
53 15 3
53 16 4
53 17 1
53 18 4
53 19 5
53 20 3
53 21 4
53 22 7
53 23 2
53 24 5
53 25 6
53 26 7
53 27 6
53 28 1
53 29 4
53 30 7
53 31 3
53 32 4
53 33 1
53 34 5
53 35 3
53 36 1
53 37 1
53 38 2
53 39 5
53 40 4
53 41 5
53 42 1
53 43 5
53 44 4
53 45 5
53 46 1
53 47 6
53 48 7
53 49 4
53 50 4
53 51 7
53 52 2
54 0 7
54 1 7
54 2 4
54 3 7
54 4 1
54 5 1
54 6 1
54 7 4
54 8 7
54 9 7
54 10 4
54 11 2
54 12 7
54 13 4
54 14 3
54 15 5
54 16 6
54 17 1
54 18 6
54 19 3
54 20 1
54 21 7
54 22 5
54 23 6
54 24 7
54 25 5
54 26 5
54 27 3
54 28 4
54 29 6
54 30 6
54 31 6
54 32 4
54 33 1
54 34 6
54 35 4
54 36 5
54 37 5
54 38 6
54 39 7
54 40 3
54 41 6
54 42 5
54 43 1
54 44 1
54 45 4
54 46 7
54 47 2
54 48 4
54 49 1
54 50 7
54 51 4
54 52 1
54 53 6
55 0 1
55 1 6
55 2 4
55 3 6
55 4 4
55 5 3
55 6 1
55 7 7
55 8 5
55 9 6
55 10 5
55 11 3
55 12 3
55 13 3
55 14 1
55 15 6
55 16 7
55 17 7
55 18 2
55 19 3
55 20 5
55 21 7
55 22 7
55 23 6
55 24 4
55 25 4
55 26 7
55 27 1
55 28 3
55 29 6
55 30 7
55 31 7
55 32 1
55 33 3
55 34 3
55 35 3
55 36 1
55 37 4
55 38 5
55 39 5
55 40 2
55 41 1
55 42 5
55 43 4
55 44 6
55 45 4
55 46 3
55 47 7
55 48 4
55 49 5
55 50 4
55 51 1
55 52 6
55 53 6
55 54 3
56 0 7
56 1 7
56 2 6
56 3 7
56 4 6
56 5 4
56 6 3
56 7 3
56 8 1
56 9 3
56 10 4
56 11 4
56 12 7
56 13 4
56 14 5
56 15 4
56 16 2
56 17 3
56 18 1
56 19 2
56 20 7
56 21 2
56 22 5
56 23 1
56 24 6
56 25 4
56 26 5
56 27 2
56 28 7
56 29 7
56 30 3
56 31 6
56 32 5
56 33 4
56 34 1
56 35 3
56 36 3
56 37 7
56 38 5
56 39 6
56 40 6
56 41 3
56 42 2
56 43 3
56 44 2
56 45 6
56 46 3
56 47 2
56 48 3
56 49 7
56 50 3
56 51 6
56 52 4
56 53 2
56 54 6
56 55 6
57 0 7
57 1 7
57 2 5
57 3 7
57 4 3
57 5 4
57 6 1
57 7 5
57 8 7
57 9 1
57 10 5
57 11 4
57 12 6
57 13 7
57 14 4
57 15 2
57 16 3
57 17 3
57 18 5
57 19 1
57 20 3
57 21 6
57 22 4
57 23 4
57 24 1
57 25 7
57 26 4
57 27 3
57 28 5
57 29 6
57 30 7
57 31 1
57 32 2
57 33 7
57 34 2
57 35 1
57 36 1
57 37 2
57 38 5
57 39 1
57 40 7
57 41 4
57 42 5
57 43 6
57 44 1
57 45 1
57 46 2
57 47 4
57 48 3
57 49 5
57 50 1
57 51 2
57 52 5
57 53 1
57 54 1
57 55 1
57 56 5
58 0 5
58 1 5
58 2 5
58 3 3
58 4 3
58 5 7
58 6 2
58 7 6
58 8 3
58 9 7
58 10 6
58 11 5
58 12 2
58 13 2
58 14 4
58 15 1
58 16 3
58 17 6
58 18 5
58 19 4
58 20 7
58 21 3
58 22 7
58 23 3
58 24 4
58 25 4
58 26 7
58 27 1
58 28 5
58 29 4
58 30 3
58 31 1
58 32 3
58 33 6
58 34 6
58 35 1
58 36 7
58 37 6
58 38 2
58 39 4
58 40 1
58 41 5
58 42 7
58 43 3
58 44 5
58 45 7
58 46 3
58 47 1
58 48 3
58 49 7
58 50 1
58 51 2
58 52 7
58 53 5
58 54 4
58 55 3
58 56 7
58 57 3
59 0 5
59 1 2
59 2 4
59 3 5
59 4 7
59 5 3
59 6 2
59 7 4
59 8 6
59 9 7
59 10 4
59 11 5
59 12 4
59 13 5
59 14 3
59 15 2
59 16 7
59 17 7
59 18 1
59 19 4
59 20 5
59 21 4
59 22 4
59 23 6
59 24 7
59 25 1
59 26 4
59 27 5
59 28 5
59 29 7
59 30 6
59 31 7
59 32 4
59 33 3
59 34 2
59 35 4
59 36 1
59 37 1
59 38 1
59 39 3
59 40 6
59 41 4
59 42 6
59 43 2
59 44 5
59 45 6
59 46 6
59 47 1
59 48 2
59 49 6
59 50 4
59 51 2
59 52 6
59 53 3
59 54 2
59 55 6
59 56 2
59 57 5
59 58 1
